; benchmark generated from python API
(set-info :status unknown)
(declare-fun cell_1_1 () Int)
(declare-fun cell_1_3 () Int)
(declare-fun cell_2_6 () Int)
(declare-fun cell_2_8 () Int)
(declare-fun cell_3_4 () Int)
(declare-fun cell_3_8 () Int)
(declare-fun cell_4_6 () Int)
(declare-fun cell_4_9 () Int)
(declare-fun cell_5_9 () Int)
(declare-fun cell_6_3 () Int)
(declare-fun cell_7_5 () Int)
(declare-fun cell_8_2 () Int)
(declare-fun cell_9_7 () Int)
(declare-fun cell_2_1 () Int)
(declare-fun cell_3_1 () Int)
(declare-fun cell_4_1 () Int)
(declare-fun cell_5_1 () Int)
(declare-fun cell_6_1 () Int)
(declare-fun cell_7_1 () Int)
(declare-fun cell_8_1 () Int)
(declare-fun cell_9_1 () Int)
(declare-fun cell_1_2 () Int)
(declare-fun cell_2_2 () Int)
(declare-fun cell_3_2 () Int)
(declare-fun cell_4_2 () Int)
(declare-fun cell_5_2 () Int)
(declare-fun cell_6_2 () Int)
(declare-fun cell_7_2 () Int)
(declare-fun cell_9_2 () Int)
(declare-fun cell_2_3 () Int)
(declare-fun cell_3_3 () Int)
(declare-fun cell_4_3 () Int)
(declare-fun cell_5_3 () Int)
(declare-fun cell_7_3 () Int)
(declare-fun cell_8_3 () Int)
(declare-fun cell_9_3 () Int)
(declare-fun cell_1_4 () Int)
(declare-fun cell_2_4 () Int)
(declare-fun cell_4_4 () Int)
(declare-fun cell_5_4 () Int)
(declare-fun cell_6_4 () Int)
(declare-fun cell_7_4 () Int)
(declare-fun cell_8_4 () Int)
(declare-fun cell_9_4 () Int)
(declare-fun cell_1_5 () Int)
(declare-fun cell_2_5 () Int)
(declare-fun cell_3_5 () Int)
(declare-fun cell_4_5 () Int)
(declare-fun cell_5_5 () Int)
(declare-fun cell_6_5 () Int)
(declare-fun cell_8_5 () Int)
(declare-fun cell_9_5 () Int)
(declare-fun cell_1_6 () Int)
(declare-fun cell_3_6 () Int)
(declare-fun cell_5_6 () Int)
(declare-fun cell_6_6 () Int)
(declare-fun cell_7_6 () Int)
(declare-fun cell_8_6 () Int)
(declare-fun cell_9_6 () Int)
(declare-fun cell_1_7 () Int)
(declare-fun cell_2_7 () Int)
(declare-fun cell_3_7 () Int)
(declare-fun cell_4_7 () Int)
(declare-fun cell_5_7 () Int)
(declare-fun cell_6_7 () Int)
(declare-fun cell_7_7 () Int)
(declare-fun cell_8_7 () Int)
(declare-fun cell_1_8 () Int)
(declare-fun cell_4_8 () Int)
(declare-fun cell_5_8 () Int)
(declare-fun cell_6_8 () Int)
(declare-fun cell_7_8 () Int)
(declare-fun cell_8_8 () Int)
(declare-fun cell_9_8 () Int)
(declare-fun cell_1_9 () Int)
(declare-fun cell_2_9 () Int)
(declare-fun cell_3_9 () Int)
(declare-fun cell_6_9 () Int)
(declare-fun cell_7_9 () Int)
(declare-fun cell_8_9 () Int)
(declare-fun cell_9_9 () Int)
(assert
 (= cell_1_1 1))
(assert
 (= cell_1_3 2))
(assert
 (= cell_2_6 2))
(assert
 (= cell_2_8 1))
(assert
 (= cell_3_4 1))
(assert
 (= cell_3_8 2))
(assert
 (= cell_4_6 1))
(assert
 (= cell_4_9 2))
(assert
 (= cell_5_9 1))
(assert
 (= cell_6_3 1))
(assert
 (= cell_7_5 1))
(assert
 (= cell_8_2 1))
(assert
 (= cell_9_7 1))
(assert
 (let (($x4622 (= cell_1_1 1)))
 (or $x4622 (= cell_1_1 2) (= cell_1_1 3) (= cell_1_1 4) (= cell_1_1 5) (= cell_1_1 6) (= cell_1_1 7) (= cell_1_1 8) (= cell_1_1 9))))
(assert
 (let (($x2971 (= cell_2_1 9)))
 (let (($x8531 (= cell_2_1 8)))
 (let (($x9516 (= cell_2_1 7)))
 (let (($x5134 (= cell_2_1 6)))
 (let (($x4265 (= cell_2_1 5)))
 (let (($x9097 (= cell_2_1 4)))
 (let (($x5815 (= cell_2_1 3)))
 (let (($x7066 (= cell_2_1 2)))
 (let (($x6592 (= cell_2_1 1)))
 (or $x6592 $x7066 $x5815 $x9097 $x4265 $x5134 $x9516 $x8531 $x2971)))))))))))
(assert
 (let (($x5645 (= cell_3_1 9)))
 (let (($x6449 (= cell_3_1 8)))
 (let (($x5030 (= cell_3_1 7)))
 (let (($x121 (= cell_3_1 6)))
 (let (($x8766 (= cell_3_1 5)))
 (let (($x4163 (= cell_3_1 4)))
 (let (($x4458 (= cell_3_1 3)))
 (let (($x5442 (= cell_3_1 2)))
 (let (($x248 (= cell_3_1 1)))
 (or $x248 $x5442 $x4458 $x4163 $x8766 $x121 $x5030 $x6449 $x5645)))))))))))
(assert
 (let (($x2210 (= cell_4_1 9)))
 (let (($x6991 (= cell_4_1 8)))
 (let (($x6510 (= cell_4_1 7)))
 (let (($x8252 (= cell_4_1 6)))
 (let (($x3757 (= cell_4_1 5)))
 (let (($x7012 (= cell_4_1 4)))
 (let (($x505 (= cell_4_1 3)))
 (let (($x8281 (= cell_4_1 2)))
 (let (($x2945 (= cell_4_1 1)))
 (or $x2945 $x8281 $x505 $x7012 $x3757 $x8252 $x6510 $x6991 $x2210)))))))))))
(assert
 (let (($x5502 (= cell_5_1 9)))
 (let (($x2002 (= cell_5_1 8)))
 (let (($x212 (= cell_5_1 7)))
 (let (($x3003 (= cell_5_1 6)))
 (let (($x4139 (= cell_5_1 5)))
 (let (($x6277 (= cell_5_1 4)))
 (let (($x786 (= cell_5_1 3)))
 (let (($x1801 (= cell_5_1 2)))
 (let (($x4071 (= cell_5_1 1)))
 (or $x4071 $x1801 $x786 $x6277 $x4139 $x3003 $x212 $x2002 $x5502)))))))))))
(assert
 (let (($x832 (= cell_6_1 9)))
 (let (($x9981 (= cell_6_1 8)))
 (let (($x1175 (= cell_6_1 7)))
 (let (($x5229 (= cell_6_1 6)))
 (let (($x4709 (= cell_6_1 5)))
 (let (($x2867 (= cell_6_1 4)))
 (let (($x2316 (= cell_6_1 3)))
 (let (($x6634 (= cell_6_1 2)))
 (let (($x1582 (= cell_6_1 1)))
 (or $x1582 $x6634 $x2316 $x2867 $x4709 $x5229 $x1175 $x9981 $x832)))))))))))
(assert
 (let (($x1964 (= cell_7_1 9)))
 (let (($x7637 (= cell_7_1 8)))
 (let (($x3283 (= cell_7_1 7)))
 (let (($x2234 (= cell_7_1 6)))
 (let (($x9749 (= cell_7_1 5)))
 (let (($x835 (= cell_7_1 4)))
 (let (($x6611 (= cell_7_1 3)))
 (let (($x731 (= cell_7_1 2)))
 (let (($x5052 (= cell_7_1 1)))
 (or $x5052 $x731 $x6611 $x835 $x9749 $x2234 $x3283 $x7637 $x1964)))))))))))
(assert
 (let (($x6087 (= cell_8_1 9)))
 (let (($x2409 (= cell_8_1 8)))
 (let (($x8684 (= cell_8_1 7)))
 (let (($x8732 (= cell_8_1 6)))
 (let (($x2312 (= cell_8_1 5)))
 (let (($x8344 (= cell_8_1 4)))
 (let (($x4020 (= cell_8_1 3)))
 (let (($x9836 (= cell_8_1 2)))
 (let (($x9404 (= cell_8_1 1)))
 (or $x9404 $x9836 $x4020 $x8344 $x2312 $x8732 $x8684 $x2409 $x6087)))))))))))
(assert
 (let (($x1174 (= cell_9_1 9)))
 (let (($x5748 (= cell_9_1 8)))
 (let (($x7479 (= cell_9_1 7)))
 (let (($x222 (= cell_9_1 6)))
 (let (($x9921 (= cell_9_1 5)))
 (let (($x938 (= cell_9_1 4)))
 (let (($x8139 (= cell_9_1 3)))
 (let (($x4102 (= cell_9_1 2)))
 (let (($x6912 (= cell_9_1 1)))
 (or $x6912 $x4102 $x8139 $x938 $x9921 $x222 $x7479 $x5748 $x1174)))))))))))
(assert
 (let (($x6705 (= cell_1_2 9)))
 (let (($x358 (= cell_1_2 8)))
 (let (($x7309 (= cell_1_2 7)))
 (let (($x1679 (= cell_1_2 6)))
 (let (($x4129 (= cell_1_2 5)))
 (let (($x7297 (= cell_1_2 4)))
 (let (($x6140 (= cell_1_2 3)))
 (let (($x412 (= cell_1_2 2)))
 (let (($x5926 (= cell_1_2 1)))
 (or $x5926 $x412 $x6140 $x7297 $x4129 $x1679 $x7309 $x358 $x6705)))))))))))
(assert
 (let (($x1115 (= cell_2_2 9)))
 (let (($x4585 (= cell_2_2 8)))
 (let (($x6400 (= cell_2_2 7)))
 (let (($x596 (= cell_2_2 6)))
 (let (($x7875 (= cell_2_2 5)))
 (let (($x60 (= cell_2_2 4)))
 (let (($x3928 (= cell_2_2 3)))
 (let (($x7694 (= cell_2_2 2)))
 (let (($x5769 (= cell_2_2 1)))
 (or $x5769 $x7694 $x3928 $x60 $x7875 $x596 $x6400 $x4585 $x1115)))))))))))
(assert
 (let (($x655 (= cell_3_2 9)))
 (let (($x10295 (= cell_3_2 8)))
 (let (($x313 (= cell_3_2 7)))
 (let (($x956 (= cell_3_2 6)))
 (let (($x3010 (= cell_3_2 5)))
 (let (($x4593 (= cell_3_2 4)))
 (let (($x7658 (= cell_3_2 3)))
 (let (($x1116 (= cell_3_2 2)))
 (let (($x389 (= cell_3_2 1)))
 (or $x389 $x1116 $x7658 $x4593 $x3010 $x956 $x313 $x10295 $x655)))))))))))
(assert
 (let (($x10149 (= cell_4_2 9)))
 (let (($x6065 (= cell_4_2 8)))
 (let (($x4105 (= cell_4_2 7)))
 (let (($x5237 (= cell_4_2 6)))
 (let (($x1986 (= cell_4_2 5)))
 (let (($x6137 (= cell_4_2 4)))
 (let (($x6655 (= cell_4_2 3)))
 (let (($x6382 (= cell_4_2 2)))
 (let (($x784 (= cell_4_2 1)))
 (or $x784 $x6382 $x6655 $x6137 $x1986 $x5237 $x4105 $x6065 $x10149)))))))))))
(assert
 (let (($x10282 (= cell_5_2 9)))
 (let (($x1198 (= cell_5_2 8)))
 (let (($x9621 (= cell_5_2 7)))
 (let (($x8223 (= cell_5_2 6)))
 (let (($x6830 (= cell_5_2 5)))
 (let (($x6717 (= cell_5_2 4)))
 (let (($x10013 (= cell_5_2 3)))
 (let (($x7019 (= cell_5_2 2)))
 (let (($x188 (= cell_5_2 1)))
 (or $x188 $x7019 $x10013 $x6717 $x6830 $x8223 $x9621 $x1198 $x10282)))))))))))
(assert
 (let (($x8352 (= cell_6_2 9)))
 (let (($x4012 (= cell_6_2 8)))
 (let (($x6244 (= cell_6_2 7)))
 (let (($x2352 (= cell_6_2 6)))
 (let (($x9332 (= cell_6_2 5)))
 (let (($x2830 (= cell_6_2 4)))
 (let (($x1633 (= cell_6_2 3)))
 (let (($x5475 (= cell_6_2 2)))
 (let (($x3866 (= cell_6_2 1)))
 (or $x3866 $x5475 $x1633 $x2830 $x9332 $x2352 $x6244 $x4012 $x8352)))))))))))
(assert
 (let (($x8884 (= cell_7_2 9)))
 (let (($x2256 (= cell_7_2 8)))
 (let (($x1266 (= cell_7_2 7)))
 (let (($x155 (= cell_7_2 6)))
 (let (($x5993 (= cell_7_2 5)))
 (let (($x950 (= cell_7_2 4)))
 (let (($x5100 (= cell_7_2 3)))
 (let (($x5435 (= cell_7_2 2)))
 (let (($x6793 (= cell_7_2 1)))
 (or $x6793 $x5435 $x5100 $x950 $x5993 $x155 $x1266 $x2256 $x8884)))))))))))
(assert
 (let (($x4950 (= cell_8_2 1)))
 (or $x4950 (= cell_8_2 2) (= cell_8_2 3) (= cell_8_2 4) (= cell_8_2 5) (= cell_8_2 6) (= cell_8_2 7) (= cell_8_2 8) (= cell_8_2 9))))
(assert
 (let (($x5418 (= cell_9_2 9)))
 (let (($x6540 (= cell_9_2 8)))
 (let (($x8443 (= cell_9_2 7)))
 (let (($x7437 (= cell_9_2 6)))
 (let (($x4126 (= cell_9_2 5)))
 (let (($x3418 (= cell_9_2 4)))
 (let (($x6170 (= cell_9_2 3)))
 (let (($x7072 (= cell_9_2 2)))
 (let (($x6884 (= cell_9_2 1)))
 (or $x6884 $x7072 $x6170 $x3418 $x4126 $x7437 $x8443 $x6540 $x5418)))))))))))
(assert
 (let (($x9869 (= cell_1_3 2)))
 (or (= cell_1_3 1) $x9869 (= cell_1_3 3) (= cell_1_3 4) (= cell_1_3 5) (= cell_1_3 6) (= cell_1_3 7) (= cell_1_3 8) (= cell_1_3 9))))
(assert
 (let (($x187 (= cell_2_3 9)))
 (let (($x856 (= cell_2_3 8)))
 (let (($x9012 (= cell_2_3 7)))
 (let (($x8805 (= cell_2_3 6)))
 (let (($x5567 (= cell_2_3 5)))
 (let (($x3056 (= cell_2_3 4)))
 (let (($x7079 (= cell_2_3 3)))
 (let (($x3439 (= cell_2_3 2)))
 (let (($x4816 (= cell_2_3 1)))
 (or $x4816 $x3439 $x7079 $x3056 $x5567 $x8805 $x9012 $x856 $x187)))))))))))
(assert
 (let (($x6641 (= cell_3_3 9)))
 (let (($x3094 (= cell_3_3 8)))
 (let (($x4384 (= cell_3_3 7)))
 (let (($x1921 (= cell_3_3 6)))
 (let (($x662 (= cell_3_3 5)))
 (let (($x9743 (= cell_3_3 4)))
 (let (($x8689 (= cell_3_3 3)))
 (let (($x5768 (= cell_3_3 2)))
 (let (($x9303 (= cell_3_3 1)))
 (or $x9303 $x5768 $x8689 $x9743 $x662 $x1921 $x4384 $x3094 $x6641)))))))))))
(assert
 (let (($x8076 (= cell_4_3 9)))
 (let (($x7370 (= cell_4_3 8)))
 (let (($x6257 (= cell_4_3 7)))
 (let (($x2427 (= cell_4_3 6)))
 (let (($x8855 (= cell_4_3 5)))
 (let (($x1442 (= cell_4_3 4)))
 (let (($x5648 (= cell_4_3 3)))
 (let (($x7911 (= cell_4_3 2)))
 (let (($x6166 (= cell_4_3 1)))
 (or $x6166 $x7911 $x5648 $x1442 $x8855 $x2427 $x6257 $x7370 $x8076)))))))))))
(assert
 (let (($x7815 (= cell_5_3 9)))
 (let (($x1797 (= cell_5_3 8)))
 (let (($x5839 (= cell_5_3 7)))
 (let (($x3448 (= cell_5_3 6)))
 (let (($x7717 (= cell_5_3 5)))
 (let (($x3444 (= cell_5_3 4)))
 (let (($x6579 (= cell_5_3 3)))
 (let (($x3774 (= cell_5_3 2)))
 (let (($x6296 (= cell_5_3 1)))
 (or $x6296 $x3774 $x6579 $x3444 $x7717 $x3448 $x5839 $x1797 $x7815)))))))))))
(assert
 (let (($x4437 (= cell_6_3 1)))
 (or $x4437 (= cell_6_3 2) (= cell_6_3 3) (= cell_6_3 4) (= cell_6_3 5) (= cell_6_3 6) (= cell_6_3 7) (= cell_6_3 8) (= cell_6_3 9))))
(assert
 (let (($x4649 (= cell_7_3 9)))
 (let (($x5541 (= cell_7_3 8)))
 (let (($x3724 (= cell_7_3 7)))
 (let (($x3556 (= cell_7_3 6)))
 (let (($x9239 (= cell_7_3 5)))
 (let (($x8707 (= cell_7_3 4)))
 (let (($x7167 (= cell_7_3 3)))
 (let (($x2111 (= cell_7_3 2)))
 (let (($x6914 (= cell_7_3 1)))
 (or $x6914 $x2111 $x7167 $x8707 $x9239 $x3556 $x3724 $x5541 $x4649)))))))))))
(assert
 (let (($x139 (= cell_8_3 2)))
 (let (($x6894 (= cell_8_3 1)))
 (or $x6894 $x139 (= cell_8_3 3) (= cell_8_3 4) (= cell_8_3 5) (= cell_8_3 6) (= cell_8_3 7) (= cell_8_3 8) (= cell_8_3 9)))))
(assert
 (let (($x5121 (= cell_9_3 9)))
 (let (($x9583 (= cell_9_3 8)))
 (let (($x9517 (= cell_9_3 7)))
 (let (($x1655 (= cell_9_3 6)))
 (let (($x10047 (= cell_9_3 5)))
 (let (($x3638 (= cell_9_3 4)))
 (let (($x9215 (= cell_9_3 3)))
 (let (($x1053 (= cell_9_3 2)))
 (let (($x4127 (= cell_9_3 1)))
 (or $x4127 $x1053 $x9215 $x3638 $x10047 $x1655 $x9517 $x9583 $x5121)))))))))))
(assert
 (let (($x2545 (= cell_1_4 9)))
 (let (($x10222 (= cell_1_4 8)))
 (let (($x10240 (= cell_1_4 7)))
 (let (($x7780 (= cell_1_4 6)))
 (let (($x8712 (= cell_1_4 5)))
 (let (($x4128 (= cell_1_4 4)))
 (let (($x4334 (= cell_1_4 3)))
 (let (($x7339 (= cell_1_4 2)))
 (let (($x3966 (= cell_1_4 1)))
 (or $x3966 $x7339 $x4334 $x4128 $x8712 $x7780 $x10240 $x10222 $x2545)))))))))))
(assert
 (let (($x8287 (= cell_2_4 9)))
 (let (($x9792 (= cell_2_4 8)))
 (let (($x3970 (= cell_2_4 7)))
 (let (($x4603 (= cell_2_4 6)))
 (let (($x5649 (= cell_2_4 5)))
 (let (($x7643 (= cell_2_4 4)))
 (let (($x5503 (= cell_2_4 3)))
 (let (($x8178 (= cell_2_4 2)))
 (let (($x7652 (= cell_2_4 1)))
 (or $x7652 $x8178 $x5503 $x7643 $x5649 $x4603 $x3970 $x9792 $x8287)))))))))))
(assert
 (let (($x959 (= cell_3_4 1)))
 (or $x959 (= cell_3_4 2) (= cell_3_4 3) (= cell_3_4 4) (= cell_3_4 5) (= cell_3_4 6) (= cell_3_4 7) (= cell_3_4 8) (= cell_3_4 9))))
(assert
 (let (($x3354 (= cell_4_4 9)))
 (let (($x7881 (= cell_4_4 8)))
 (let (($x2200 (= cell_4_4 7)))
 (let (($x6013 (= cell_4_4 6)))
 (let (($x3103 (= cell_4_4 5)))
 (let (($x5020 (= cell_4_4 4)))
 (let (($x7324 (= cell_4_4 3)))
 (let (($x538 (= cell_4_4 2)))
 (let (($x7986 (= cell_4_4 1)))
 (or $x7986 $x538 $x7324 $x5020 $x3103 $x6013 $x2200 $x7881 $x3354)))))))))))
(assert
 (let (($x5714 (= cell_5_4 9)))
 (let (($x9709 (= cell_5_4 8)))
 (let (($x618 (= cell_5_4 7)))
 (let (($x182 (= cell_5_4 6)))
 (let (($x2258 (= cell_5_4 5)))
 (let (($x9851 (= cell_5_4 4)))
 (let (($x5095 (= cell_5_4 3)))
 (let (($x9991 (= cell_5_4 2)))
 (let (($x5893 (= cell_5_4 1)))
 (or $x5893 $x9991 $x5095 $x9851 $x2258 $x182 $x618 $x9709 $x5714)))))))))))
(assert
 (let (($x4123 (= cell_6_4 1)))
 (or $x4123 (= cell_6_4 2) (= cell_6_4 3) (= cell_6_4 4) (= cell_6_4 5) (= cell_6_4 6) (= cell_6_4 7) (= cell_6_4 8) (= cell_6_4 9))))
(assert
 (let (($x8047 (= cell_7_4 9)))
 (let (($x5592 (= cell_7_4 8)))
 (let (($x3519 (= cell_7_4 7)))
 (let (($x4941 (= cell_7_4 6)))
 (let (($x3509 (= cell_7_4 5)))
 (let (($x7398 (= cell_7_4 4)))
 (let (($x8056 (= cell_7_4 3)))
 (let (($x1544 (= cell_7_4 2)))
 (let (($x3136 (= cell_7_4 1)))
 (or $x3136 $x1544 $x8056 $x7398 $x3509 $x4941 $x3519 $x5592 $x8047)))))))))))
(assert
 (let (($x8136 (= cell_8_4 1)))
 (or $x8136 (= cell_8_4 2) (= cell_8_4 3) (= cell_8_4 4) (= cell_8_4 5) (= cell_8_4 6) (= cell_8_4 7) (= cell_8_4 8) (= cell_8_4 9))))
(assert
 (let (($x574 (= cell_9_4 9)))
 (let (($x5746 (= cell_9_4 8)))
 (let (($x8857 (= cell_9_4 7)))
 (let (($x7778 (= cell_9_4 6)))
 (let (($x5241 (= cell_9_4 5)))
 (let (($x8154 (= cell_9_4 4)))
 (let (($x6702 (= cell_9_4 3)))
 (let (($x4391 (= cell_9_4 2)))
 (let (($x7020 (= cell_9_4 1)))
 (or $x7020 $x4391 $x6702 $x8154 $x5241 $x7778 $x8857 $x5746 $x574)))))))))))
(assert
 (let (($x10115 (= cell_1_5 9)))
 (let (($x10079 (= cell_1_5 8)))
 (let (($x4805 (= cell_1_5 7)))
 (let (($x6858 (= cell_1_5 6)))
 (let (($x3376 (= cell_1_5 5)))
 (let (($x3437 (= cell_1_5 4)))
 (let (($x6446 (= cell_1_5 3)))
 (let (($x10119 (= cell_1_5 2)))
 (let (($x1603 (= cell_1_5 1)))
 (or $x1603 $x10119 $x6446 $x3437 $x3376 $x6858 $x4805 $x10079 $x10115)))))))))))
(assert
 (let (($x4040 (= cell_2_5 9)))
 (let (($x485 (= cell_2_5 8)))
 (let (($x2500 (= cell_2_5 7)))
 (let (($x1022 (= cell_2_5 6)))
 (let (($x7972 (= cell_2_5 5)))
 (let (($x4028 (= cell_2_5 4)))
 (let (($x6776 (= cell_2_5 3)))
 (let (($x6658 (= cell_2_5 2)))
 (let (($x4976 (= cell_2_5 1)))
 (or $x4976 $x6658 $x6776 $x4028 $x7972 $x1022 $x2500 $x485 $x4040)))))))))))
(assert
 (let (($x9933 (= cell_3_5 9)))
 (let (($x6152 (= cell_3_5 8)))
 (let (($x2309 (= cell_3_5 7)))
 (let (($x4225 (= cell_3_5 6)))
 (let (($x6295 (= cell_3_5 5)))
 (let (($x7969 (= cell_3_5 4)))
 (let (($x5905 (= cell_3_5 3)))
 (let (($x5507 (= cell_3_5 2)))
 (let (($x1492 (= cell_3_5 1)))
 (or $x1492 $x5507 $x5905 $x7969 $x6295 $x4225 $x2309 $x6152 $x9933)))))))))))
(assert
 (let (($x356 (= cell_4_5 9)))
 (let (($x9780 (= cell_4_5 8)))
 (let (($x9338 (= cell_4_5 7)))
 (let (($x3116 (= cell_4_5 6)))
 (let (($x10022 (= cell_4_5 5)))
 (let (($x315 (= cell_4_5 4)))
 (let (($x5331 (= cell_4_5 3)))
 (let (($x1398 (= cell_4_5 2)))
 (let (($x4152 (= cell_4_5 1)))
 (or $x4152 $x1398 $x5331 $x315 $x10022 $x3116 $x9338 $x9780 $x356)))))))))))
(assert
 (let (($x9576 (= cell_5_5 9)))
 (let (($x3819 (= cell_5_5 8)))
 (let (($x8034 (= cell_5_5 7)))
 (let (($x896 (= cell_5_5 6)))
 (let (($x9530 (= cell_5_5 5)))
 (let (($x333 (= cell_5_5 4)))
 (let (($x4982 (= cell_5_5 3)))
 (let (($x7371 (= cell_5_5 2)))
 (let (($x964 (= cell_5_5 1)))
 (or $x964 $x7371 $x4982 $x333 $x9530 $x896 $x8034 $x3819 $x9576)))))))))))
(assert
 (let (($x727 (= cell_6_5 9)))
 (let (($x904 (= cell_6_5 8)))
 (let (($x7985 (= cell_6_5 7)))
 (let (($x5747 (= cell_6_5 6)))
 (let (($x9003 (= cell_6_5 5)))
 (let (($x7213 (= cell_6_5 4)))
 (let (($x3620 (= cell_6_5 3)))
 (let (($x1835 (= cell_6_5 2)))
 (let (($x3208 (= cell_6_5 1)))
 (or $x3208 $x1835 $x3620 $x7213 $x9003 $x5747 $x7985 $x904 $x727)))))))))))
(assert
 (let (($x1509 (= cell_7_5 1)))
 (or $x1509 (= cell_7_5 2) (= cell_7_5 3) (= cell_7_5 4) (= cell_7_5 5) (= cell_7_5 6) (= cell_7_5 7) (= cell_7_5 8) (= cell_7_5 9))))
(assert
 (let (($x6711 (= cell_8_5 1)))
 (or $x6711 (= cell_8_5 2) (= cell_8_5 3) (= cell_8_5 4) (= cell_8_5 5) (= cell_8_5 6) (= cell_8_5 7) (= cell_8_5 8) (= cell_8_5 9))))
(assert
 (let (($x3694 (= cell_9_5 9)))
 (let (($x6249 (= cell_9_5 8)))
 (let (($x7061 (= cell_9_5 7)))
 (let (($x2505 (= cell_9_5 6)))
 (let (($x3907 (= cell_9_5 5)))
 (let (($x1669 (= cell_9_5 4)))
 (let (($x8834 (= cell_9_5 3)))
 (let (($x5522 (= cell_9_5 2)))
 (let (($x8241 (= cell_9_5 1)))
 (or $x8241 $x5522 $x8834 $x1669 $x3907 $x2505 $x7061 $x6249 $x3694)))))))))))
(assert
 (let (($x5513 (= cell_1_6 9)))
 (let (($x1000 (= cell_1_6 8)))
 (let (($x9614 (= cell_1_6 7)))
 (let (($x6219 (= cell_1_6 6)))
 (let (($x4249 (= cell_1_6 5)))
 (let (($x5469 (= cell_1_6 4)))
 (let (($x7 (= cell_1_6 3)))
 (let (($x9650 (= cell_1_6 2)))
 (let (($x325 (= cell_1_6 1)))
 (or $x325 $x9650 $x7 $x5469 $x4249 $x6219 $x9614 $x1000 $x5513)))))))))))
(assert
 (let (($x8384 (= cell_2_6 2)))
 (or (= cell_2_6 1) $x8384 (= cell_2_6 3) (= cell_2_6 4) (= cell_2_6 5) (= cell_2_6 6) (= cell_2_6 7) (= cell_2_6 8) (= cell_2_6 9))))
(assert
 (let (($x3865 (= cell_3_6 9)))
 (let (($x3668 (= cell_3_6 8)))
 (let (($x9025 (= cell_3_6 7)))
 (let (($x3112 (= cell_3_6 6)))
 (let (($x1804 (= cell_3_6 5)))
 (let (($x1536 (= cell_3_6 4)))
 (let (($x8863 (= cell_3_6 3)))
 (let (($x5361 (= cell_3_6 2)))
 (let (($x9388 (= cell_3_6 1)))
 (or $x9388 $x5361 $x8863 $x1536 $x1804 $x3112 $x9025 $x3668 $x3865)))))))))))
(assert
 (let (($x9444 (= cell_4_6 1)))
 (or $x9444 (= cell_4_6 2) (= cell_4_6 3) (= cell_4_6 4) (= cell_4_6 5) (= cell_4_6 6) (= cell_4_6 7) (= cell_4_6 8) (= cell_4_6 9))))
(assert
 (let (($x6107 (= cell_5_6 9)))
 (let (($x8426 (= cell_5_6 8)))
 (let (($x7091 (= cell_5_6 7)))
 (let (($x818 (= cell_5_6 6)))
 (let (($x3653 (= cell_5_6 5)))
 (let (($x3575 (= cell_5_6 4)))
 (let (($x2421 (= cell_5_6 3)))
 (let (($x6213 (= cell_5_6 2)))
 (let (($x4587 (= cell_5_6 1)))
 (or $x4587 $x6213 $x2421 $x3575 $x3653 $x818 $x7091 $x8426 $x6107)))))))))))
(assert
 (let (($x6886 (= cell_6_6 2)))
 (let (($x10142 (= cell_6_6 1)))
 (or $x10142 $x6886 (= cell_6_6 3) (= cell_6_6 4) (= cell_6_6 5) (= cell_6_6 6) (= cell_6_6 7) (= cell_6_6 8) (= cell_6_6 9)))))
(assert
 (let (($x2937 (= cell_7_6 2)))
 (let (($x6455 (= cell_7_6 1)))
 (or $x6455 $x2937 (= cell_7_6 3) (= cell_7_6 4) (= cell_7_6 5) (= cell_7_6 6) (= cell_7_6 7) (= cell_7_6 8) (= cell_7_6 9)))))
(assert
 (let (($x5702 (= cell_8_6 2)))
 (let (($x8730 (= cell_8_6 1)))
 (or $x8730 $x5702 (= cell_8_6 3) (= cell_8_6 4) (= cell_8_6 5) (= cell_8_6 6) (= cell_8_6 7) (= cell_8_6 8) (= cell_8_6 9)))))
(assert
 (let (($x4789 (= cell_9_6 9)))
 (let (($x7251 (= cell_9_6 8)))
 (let (($x3177 (= cell_9_6 7)))
 (let (($x2023 (= cell_9_6 6)))
 (let (($x3629 (= cell_9_6 5)))
 (let (($x2774 (= cell_9_6 4)))
 (let (($x3671 (= cell_9_6 3)))
 (let (($x468 (= cell_9_6 2)))
 (let (($x5080 (= cell_9_6 1)))
 (or $x5080 $x468 $x3671 $x2774 $x3629 $x2023 $x3177 $x7251 $x4789)))))))))))
(assert
 (let (($x4681 (= cell_1_7 9)))
 (let (($x7587 (= cell_1_7 8)))
 (let (($x4832 (= cell_1_7 7)))
 (let (($x2796 (= cell_1_7 6)))
 (let (($x5915 (= cell_1_7 5)))
 (let (($x7258 (= cell_1_7 4)))
 (let (($x1785 (= cell_1_7 3)))
 (let (($x7279 (= cell_1_7 2)))
 (let (($x5146 (= cell_1_7 1)))
 (or $x5146 $x7279 $x1785 $x7258 $x5915 $x2796 $x4832 $x7587 $x4681)))))))))))
(assert
 (let (($x7816 (= cell_2_7 9)))
 (let (($x6230 (= cell_2_7 8)))
 (let (($x4720 (= cell_2_7 7)))
 (let (($x1380 (= cell_2_7 6)))
 (let (($x9142 (= cell_2_7 5)))
 (let (($x69 (= cell_2_7 4)))
 (let (($x10265 (= cell_2_7 3)))
 (let (($x7115 (= cell_2_7 2)))
 (let (($x3199 (= cell_2_7 1)))
 (or $x3199 $x7115 $x10265 $x69 $x9142 $x1380 $x4720 $x6230 $x7816)))))))))))
(assert
 (let (($x4865 (= cell_3_7 9)))
 (let (($x8792 (= cell_3_7 8)))
 (let (($x346 (= cell_3_7 7)))
 (let (($x3745 (= cell_3_7 6)))
 (let (($x4678 (= cell_3_7 5)))
 (let (($x5683 (= cell_3_7 4)))
 (let (($x1681 (= cell_3_7 3)))
 (let (($x8544 (= cell_3_7 2)))
 (let (($x3336 (= cell_3_7 1)))
 (or $x3336 $x8544 $x1681 $x5683 $x4678 $x3745 $x346 $x8792 $x4865)))))))))))
(assert
 (let (($x3485 (= cell_4_7 9)))
 (let (($x1345 (= cell_4_7 8)))
 (let (($x142 (= cell_4_7 7)))
 (let (($x8328 (= cell_4_7 6)))
 (let (($x6101 (= cell_4_7 5)))
 (let (($x8107 (= cell_4_7 4)))
 (let (($x2265 (= cell_4_7 3)))
 (let (($x9737 (= cell_4_7 2)))
 (let (($x328 (= cell_4_7 1)))
 (or $x328 $x9737 $x2265 $x8107 $x6101 $x8328 $x142 $x1345 $x3485)))))))))))
(assert
 (let (($x6113 (= cell_5_7 9)))
 (let (($x4234 (= cell_5_7 8)))
 (let (($x8602 (= cell_5_7 7)))
 (let (($x2408 (= cell_5_7 6)))
 (let (($x3090 (= cell_5_7 5)))
 (let (($x8643 (= cell_5_7 4)))
 (let (($x3324 (= cell_5_7 3)))
 (let (($x1217 (= cell_5_7 2)))
 (let (($x7070 (= cell_5_7 1)))
 (or $x7070 $x1217 $x3324 $x8643 $x3090 $x2408 $x8602 $x4234 $x6113)))))))))))
(assert
 (let (($x4465 (= cell_6_7 9)))
 (let (($x4292 (= cell_6_7 8)))
 (let (($x1061 (= cell_6_7 7)))
 (let (($x4101 (= cell_6_7 6)))
 (let (($x751 (= cell_6_7 5)))
 (let (($x2864 (= cell_6_7 4)))
 (let (($x1717 (= cell_6_7 3)))
 (let (($x3497 (= cell_6_7 2)))
 (let (($x8657 (= cell_6_7 1)))
 (or $x8657 $x3497 $x1717 $x2864 $x751 $x4101 $x1061 $x4292 $x4465)))))))))))
(assert
 (let (($x6436 (= cell_7_7 9)))
 (let (($x4080 (= cell_7_7 8)))
 (let (($x3847 (= cell_7_7 7)))
 (let (($x7524 (= cell_7_7 6)))
 (let (($x6205 (= cell_7_7 5)))
 (let (($x5351 (= cell_7_7 4)))
 (let (($x8340 (= cell_7_7 3)))
 (let (($x8844 (= cell_7_7 2)))
 (let (($x6635 (= cell_7_7 1)))
 (or $x6635 $x8844 $x8340 $x5351 $x6205 $x7524 $x3847 $x4080 $x6436)))))))))))
(assert
 (let (($x4724 (= cell_8_7 9)))
 (let (($x3743 (= cell_8_7 8)))
 (let (($x645 (= cell_8_7 7)))
 (let (($x1385 (= cell_8_7 6)))
 (let (($x8004 (= cell_8_7 5)))
 (let (($x4820 (= cell_8_7 4)))
 (let (($x9834 (= cell_8_7 3)))
 (let (($x7898 (= cell_8_7 2)))
 (let (($x9331 (= cell_8_7 1)))
 (or $x9331 $x7898 $x9834 $x4820 $x8004 $x1385 $x645 $x3743 $x4724)))))))))))
(assert
 (let (($x8720 (= cell_9_7 1)))
 (or $x8720 (= cell_9_7 2) (= cell_9_7 3) (= cell_9_7 4) (= cell_9_7 5) (= cell_9_7 6) (= cell_9_7 7) (= cell_9_7 8) (= cell_9_7 9))))
(assert
 (let (($x7436 (= cell_1_8 9)))
 (let (($x3624 (= cell_1_8 8)))
 (let (($x4588 (= cell_1_8 7)))
 (let (($x2823 (= cell_1_8 6)))
 (let (($x7269 (= cell_1_8 5)))
 (let (($x6338 (= cell_1_8 4)))
 (let (($x3590 (= cell_1_8 3)))
 (let (($x3864 (= cell_1_8 2)))
 (let (($x9835 (= cell_1_8 1)))
 (or $x9835 $x3864 $x3590 $x6338 $x7269 $x2823 $x4588 $x3624 $x7436)))))))))))
(assert
 (let (($x5404 (= cell_2_8 1)))
 (or $x5404 (= cell_2_8 2) (= cell_2_8 3) (= cell_2_8 4) (= cell_2_8 5) (= cell_2_8 6) (= cell_2_8 7) (= cell_2_8 8) (= cell_2_8 9))))
(assert
 (let (($x4167 (= cell_3_8 2)))
 (or (= cell_3_8 1) $x4167 (= cell_3_8 3) (= cell_3_8 4) (= cell_3_8 5) (= cell_3_8 6) (= cell_3_8 7) (= cell_3_8 8) (= cell_3_8 9))))
(assert
 (let (($x7546 (= cell_4_8 9)))
 (let (($x1827 (= cell_4_8 8)))
 (let (($x5281 (= cell_4_8 7)))
 (let (($x814 (= cell_4_8 6)))
 (let (($x2386 (= cell_4_8 5)))
 (let (($x8633 (= cell_4_8 4)))
 (let (($x5042 (= cell_4_8 3)))
 (let (($x8620 (= cell_4_8 2)))
 (let (($x7703 (= cell_4_8 1)))
 (or $x7703 $x8620 $x5042 $x8633 $x2386 $x814 $x5281 $x1827 $x7546)))))))))))
(assert
 (let (($x1127 (= cell_5_8 9)))
 (let (($x6139 (= cell_5_8 8)))
 (let (($x5721 (= cell_5_8 7)))
 (let (($x6926 (= cell_5_8 6)))
 (let (($x176 (= cell_5_8 5)))
 (let (($x264 (= cell_5_8 4)))
 (let (($x9098 (= cell_5_8 3)))
 (let (($x2751 (= cell_5_8 2)))
 (let (($x7469 (= cell_5_8 1)))
 (or $x7469 $x2751 $x9098 $x264 $x176 $x6926 $x5721 $x6139 $x1127)))))))))))
(assert
 (let (($x8768 (= cell_6_8 2)))
 (let (($x2231 (= cell_6_8 1)))
 (or $x2231 $x8768 (= cell_6_8 3) (= cell_6_8 4) (= cell_6_8 5) (= cell_6_8 6) (= cell_6_8 7) (= cell_6_8 8) (= cell_6_8 9)))))
(assert
 (let (($x1388 (= cell_7_8 9)))
 (let (($x1481 (= cell_7_8 8)))
 (let (($x1367 (= cell_7_8 7)))
 (let (($x7670 (= cell_7_8 6)))
 (let (($x576 (= cell_7_8 5)))
 (let (($x2688 (= cell_7_8 4)))
 (let (($x3520 (= cell_7_8 3)))
 (let (($x3514 (= cell_7_8 2)))
 (let (($x2179 (= cell_7_8 1)))
 (or $x2179 $x3514 $x3520 $x2688 $x576 $x7670 $x1367 $x1481 $x1388)))))))))))
(assert
 (let (($x1483 (= cell_8_8 9)))
 (let (($x4951 (= cell_8_8 8)))
 (let (($x8889 (= cell_8_8 7)))
 (let (($x7918 (= cell_8_8 6)))
 (let (($x7129 (= cell_8_8 5)))
 (let (($x8003 (= cell_8_8 4)))
 (let (($x3898 (= cell_8_8 3)))
 (let (($x8272 (= cell_8_8 2)))
 (let (($x5693 (= cell_8_8 1)))
 (or $x5693 $x8272 $x3898 $x8003 $x7129 $x7918 $x8889 $x4951 $x1483)))))))))))
(assert
 (let (($x9858 (= cell_9_8 2)))
 (let (($x7763 (= cell_9_8 1)))
 (or $x7763 $x9858 (= cell_9_8 3) (= cell_9_8 4) (= cell_9_8 5) (= cell_9_8 6) (= cell_9_8 7) (= cell_9_8 8) (= cell_9_8 9)))))
(assert
 (let (($x4264 (= cell_1_9 9)))
 (let (($x4897 (= cell_1_9 8)))
 (let (($x94 (= cell_1_9 7)))
 (let (($x7907 (= cell_1_9 6)))
 (let (($x3580 (= cell_1_9 5)))
 (let (($x1344 (= cell_1_9 4)))
 (let (($x3420 (= cell_1_9 3)))
 (let (($x5837 (= cell_1_9 2)))
 (let (($x1157 (= cell_1_9 1)))
 (or $x1157 $x5837 $x3420 $x1344 $x3580 $x7907 $x94 $x4897 $x4264)))))))))))
(assert
 (let (($x3054 (= cell_2_9 9)))
 (let (($x9282 (= cell_2_9 8)))
 (let (($x6110 (= cell_2_9 7)))
 (let (($x9252 (= cell_2_9 6)))
 (let (($x5838 (= cell_2_9 5)))
 (let (($x3800 (= cell_2_9 4)))
 (let (($x5598 (= cell_2_9 3)))
 (let (($x6915 (= cell_2_9 2)))
 (let (($x8210 (= cell_2_9 1)))
 (or $x8210 $x6915 $x5598 $x3800 $x5838 $x9252 $x6110 $x9282 $x3054)))))))))))
(assert
 (let (($x9150 (= cell_3_9 9)))
 (let (($x2397 (= cell_3_9 8)))
 (let (($x9177 (= cell_3_9 7)))
 (let (($x8002 (= cell_3_9 6)))
 (let (($x1744 (= cell_3_9 5)))
 (let (($x5762 (= cell_3_9 4)))
 (let (($x9163 (= cell_3_9 3)))
 (let (($x2410 (= cell_3_9 2)))
 (let (($x8731 (= cell_3_9 1)))
 (or $x8731 $x2410 $x9163 $x5762 $x1744 $x8002 $x9177 $x2397 $x9150)))))))))))
(assert
 (let (($x189 (= cell_4_9 2)))
 (or (= cell_4_9 1) $x189 (= cell_4_9 3) (= cell_4_9 4) (= cell_4_9 5) (= cell_4_9 6) (= cell_4_9 7) (= cell_4_9 8) (= cell_4_9 9))))
(assert
 (let (($x4277 (= cell_5_9 1)))
 (or $x4277 (= cell_5_9 2) (= cell_5_9 3) (= cell_5_9 4) (= cell_5_9 5) (= cell_5_9 6) (= cell_5_9 7) (= cell_5_9 8) (= cell_5_9 9))))
(assert
 (let (($x8926 (= cell_6_9 2)))
 (let (($x9020 (= cell_6_9 1)))
 (or $x9020 $x8926 (= cell_6_9 3) (= cell_6_9 4) (= cell_6_9 5) (= cell_6_9 6) (= cell_6_9 7) (= cell_6_9 8) (= cell_6_9 9)))))
(assert
 (let (($x234 (= cell_7_9 9)))
 (let (($x404 (= cell_7_9 8)))
 (let (($x4931 (= cell_7_9 7)))
 (let (($x1690 (= cell_7_9 6)))
 (let (($x3914 (= cell_7_9 5)))
 (let (($x8088 (= cell_7_9 4)))
 (let (($x8906 (= cell_7_9 3)))
 (let (($x9891 (= cell_7_9 2)))
 (let (($x7665 (= cell_7_9 1)))
 (or $x7665 $x9891 $x8906 $x8088 $x3914 $x1690 $x4931 $x404 $x234)))))))))))
(assert
 (let (($x8489 (= cell_8_9 9)))
 (let (($x6664 (= cell_8_9 8)))
 (let (($x9298 (= cell_8_9 7)))
 (let (($x2624 (= cell_8_9 6)))
 (let (($x9337 (= cell_8_9 5)))
 (let (($x6959 (= cell_8_9 4)))
 (let (($x418 (= cell_8_9 3)))
 (let (($x6721 (= cell_8_9 2)))
 (let (($x4197 (= cell_8_9 1)))
 (or $x4197 $x6721 $x418 $x6959 $x9337 $x2624 $x9298 $x6664 $x8489)))))))))))
(assert
 (let (($x1187 (= cell_9_9 2)))
 (let (($x5278 (= cell_9_9 1)))
 (or $x5278 $x1187 (= cell_9_9 3) (= cell_9_9 4) (= cell_9_9 5) (= cell_9_9 6) (= cell_9_9 7) (= cell_9_9 8) (= cell_9_9 9)))))
(assert
 (and (distinct cell_1_1 cell_1_2 cell_1_3 cell_1_4 cell_1_5 cell_1_6 cell_1_7 cell_1_8 cell_1_9) true))
(assert
 (and (distinct cell_2_1 cell_2_2 cell_2_3 cell_2_4 cell_2_5 cell_2_6 cell_2_7 cell_2_8 cell_2_9) true))
(assert
 (and (distinct cell_3_1 cell_3_2 cell_3_3 cell_3_4 cell_3_5 cell_3_6 cell_3_7 cell_3_8 cell_3_9) true))
(assert
 (and (distinct cell_4_1 cell_4_2 cell_4_3 cell_4_4 cell_4_5 cell_4_6 cell_4_7 cell_4_8 cell_4_9) true))
(assert
 (and (distinct cell_5_1 cell_5_2 cell_5_3 cell_5_4 cell_5_5 cell_5_6 cell_5_7 cell_5_8 cell_5_9) true))
(assert
 (and (distinct cell_6_1 cell_6_2 cell_6_3 cell_6_4 cell_6_5 cell_6_6 cell_6_7 cell_6_8 cell_6_9) true))
(assert
 (and (distinct cell_7_1 cell_7_2 cell_7_3 cell_7_4 cell_7_5 cell_7_6 cell_7_7 cell_7_8 cell_7_9) true))
(assert
 (and (distinct cell_8_1 cell_8_2 cell_8_3 cell_8_4 cell_8_5 cell_8_6 cell_8_7 cell_8_8 cell_8_9) true))
(assert
 (and (distinct cell_9_1 cell_9_2 cell_9_3 cell_9_4 cell_9_5 cell_9_6 cell_9_7 cell_9_8 cell_9_9) true))
(assert
 (and (distinct cell_1_1 cell_2_1 cell_3_1 cell_4_1 cell_5_1 cell_6_1 cell_7_1 cell_8_1 cell_9_1) true))
(assert
 (and (distinct cell_1_2 cell_2_2 cell_3_2 cell_4_2 cell_5_2 cell_6_2 cell_7_2 cell_8_2 cell_9_2) true))
(assert
 (and (distinct cell_1_3 cell_2_3 cell_3_3 cell_4_3 cell_5_3 cell_6_3 cell_7_3 cell_8_3 cell_9_3) true))
(assert
 (and (distinct cell_1_4 cell_2_4 cell_3_4 cell_4_4 cell_5_4 cell_6_4 cell_7_4 cell_8_4 cell_9_4) true))
(assert
 (and (distinct cell_1_5 cell_2_5 cell_3_5 cell_4_5 cell_5_5 cell_6_5 cell_7_5 cell_8_5 cell_9_5) true))
(assert
 (and (distinct cell_1_6 cell_2_6 cell_3_6 cell_4_6 cell_5_6 cell_6_6 cell_7_6 cell_8_6 cell_9_6) true))
(assert
 (and (distinct cell_1_7 cell_2_7 cell_3_7 cell_4_7 cell_5_7 cell_6_7 cell_7_7 cell_8_7 cell_9_7) true))
(assert
 (and (distinct cell_1_8 cell_2_8 cell_3_8 cell_4_8 cell_5_8 cell_6_8 cell_7_8 cell_8_8 cell_9_8) true))
(assert
 (and (distinct cell_1_9 cell_2_9 cell_3_9 cell_4_9 cell_5_9 cell_6_9 cell_7_9 cell_8_9 cell_9_9) true))
(assert
 (and (distinct cell_1_1 cell_1_2 cell_1_3 cell_2_1 cell_2_2 cell_2_3 cell_3_1 cell_3_2 cell_3_3) true))
(assert
 (and (distinct cell_1_4 cell_1_5 cell_1_6 cell_2_4 cell_2_5 cell_2_6 cell_3_4 cell_3_5 cell_3_6) true))
(assert
 (and (distinct cell_1_7 cell_1_8 cell_1_9 cell_2_7 cell_2_8 cell_2_9 cell_3_7 cell_3_8 cell_3_9) true))
(assert
 (and (distinct cell_4_1 cell_4_2 cell_4_3 cell_5_1 cell_5_2 cell_5_3 cell_6_1 cell_6_2 cell_6_3) true))
(assert
 (and (distinct cell_4_4 cell_4_5 cell_4_6 cell_5_4 cell_5_5 cell_5_6 cell_6_4 cell_6_5 cell_6_6) true))
(assert
 (and (distinct cell_4_7 cell_4_8 cell_4_9 cell_5_7 cell_5_8 cell_5_9 cell_6_7 cell_6_8 cell_6_9) true))
(assert
 (and (distinct cell_7_1 cell_7_2 cell_7_3 cell_8_1 cell_8_2 cell_8_3 cell_9_1 cell_9_2 cell_9_3) true))
(assert
 (and (distinct cell_7_4 cell_7_5 cell_7_6 cell_8_4 cell_8_5 cell_8_6 cell_9_4 cell_9_5 cell_9_6) true))
(assert
 (and (distinct cell_7_7 cell_7_8 cell_7_9 cell_8_7 cell_8_8 cell_8_9 cell_9_7 cell_9_8 cell_9_9) true))
(assert
 (let (($x8741 (and (distinct cell_5_9 cell_6_8 cell_7_7 cell_8_6) true)))
 (let (($x64 (and (distinct cell_2_9 cell_3_8 cell_4_7 cell_5_6 cell_6_5 cell_7_4 cell_8_3 cell_9_2) true)))
 (let (($x4546 (and (distinct cell_1_8 cell_2_7 cell_3_6 cell_4_5 cell_5_4 cell_6_3 cell_7_2 cell_8_1) true)))
 (let (($x1527 (and (distinct cell_1_5 cell_2_4 cell_3_3 cell_4_2) true)))
 (let (($x7457 (and (distinct cell_5_1 cell_6_2 cell_7_3 cell_8_4) true)))
 (let (($x6424 (and (distinct cell_2_1 cell_3_2 cell_4_3 cell_5_4 cell_6_5 cell_7_6 cell_8_7 cell_9_8) true)))
 (let (($x9015 (and (distinct cell_1_2 cell_2_3 cell_3_4 cell_4_5 cell_5_6 cell_6_7 cell_7_8 cell_8_9) true)))
 (let (($x9584 (and (distinct cell_1_5 cell_2_6 cell_3_7 cell_4_8) true)))
 (and $x9584 $x9015 $x6424 $x7457 $x1527 $x4546 $x64 $x8741))))))))))
(assert
 (and (distinct cell_5_5 2) true))
(check-sat)
